3
20
5630
[[557,580,635,627,114,796, 48,263,354,662,790,871,312,318,931,237,570,437, 72,831],
 [443,420,365,373,886,204,952,737,646,338,210,129,688,682, 69,763,430,563,928,169],
 [ 59, 71, 15, 19, 97, 73,  5, 24,  7, 38, 70, 16, 11, 99, 21, 25, 88, 60,  9, 82]]
[879,491,404,618,455,952,204,752,869,187,367,661,864,470,141,113,854,719,634,627]